sifdecoder -A pc64.lnx.gfo -st   HAGER4

 Problem name: HAGER4

 Double precision version will be formed

 The objective function uses 1 nonlinear group
 
 There are 2500 linear equality constraints
 
 There are 2500 free variables
 There are 2500 variables bounded only from above 
 There is 1 fixed variable
 
 
 File successfully decoded
 CUTEST: tools (double precision version) compiled successfully
 CUTEst: ipopt (double precision version) compiled successfully

******************************************************************************
This program contains Ipopt, a library for large-scale nonlinear optimization.
 Ipopt is released as open source code under the Eclipse Public License (EPL).
         For more information visit http://projects.coin-or.org/Ipopt
******************************************************************************

This is Ipopt version trunk, running with linear solver ma57.

Number of nonzeros in equality constraint Jacobian...:     7499
Number of nonzeros in inequality constraint Jacobian.:        0
Number of nonzeros in Lagrangian Hessian.............:     7499

Total number of variables............................:     5000
                     variables with only lower bounds:        0
                variables with lower and upper bounds:        0
                     variables with only upper bounds:     2500
Total number of equality constraints.................:     2500
Total number of inequality constraints...............:        0
        inequality constraints with only lower bounds:        0
   inequality constraints with lower and upper bounds:        0
        inequality constraints with only upper bounds:        0

iter    objective    inf_pr   inf_du lg(mu)  ||d||  lg(rg) alpha_du alpha_pr  ls
   0  4.7282650e-04 6.66e+03 1.16e+00  -1.0 0.00e+00    -  0.00e+00 0.00e+00   0
   1  3.6878740e+00 7.03e-12 9.96e-03  -1.0 7.51e+00    -  9.90e-01 1.00e+00f  1
   2  3.6028904e+00 5.88e-12 1.50e-09  -3.8 1.18e-01    -  1.00e+00 1.00e+00f  1
   3  3.0043069e+00 6.06e-12 1.84e-11  -5.7 1.29e+00    -  1.00e+00 1.00e+00f  1
   4  2.8448830e+00 4.66e-12 1.84e-11  -5.7 5.71e-01    -  1.00e+00 1.00e+00f  1
   5  2.8045100e+00 4.09e-12 1.84e-11  -5.7 2.13e-01    -  1.00e+00 1.00e+00f  1
   6  2.7953252e+00 3.97e-12 2.51e-14  -8.6 7.99e-02    -  1.00e+00 1.00e+00f  1
   7  2.7942146e+00 4.57e-12 2.51e-14  -8.6 3.88e-02    -  1.00e+00 1.00e+00f  1
   8  2.7941013e+00 4.27e-12 2.51e-14  -8.6 1.98e-02    -  1.00e+00 1.00e+00f  1
   9  2.7940888e+00 4.23e-12 2.51e-14  -8.6 9.90e-03    -  1.00e+00 1.00e+00h  1
iter    objective    inf_pr   inf_du lg(mu)  ||d||  lg(rg) alpha_du alpha_pr  ls
  10  2.7940874e+00 4.26e-12 2.51e-14  -8.6 4.83e-03    -  1.00e+00 1.00e+00h  1
  11  2.7940852e+00 3.88e-12 9.09e-15  -9.0 2.51e-03    -  1.00e+00 1.00e+00h  1

Number of Iterations....: 11

                                   (scaled)                 (unscaled)
Objective...............:   2.7940851989871529e+00    2.7940851989871529e+00
Dual infeasibility......:   9.0911978466168275e-15    9.0911978466168275e-15
Constraint violation....:   1.5527135133197589e-13    3.8817837832993973e-12
Complementarity.........:   3.4519573754251681e-09    3.4519573754251681e-09
Overall NLP error.......:   3.4519573754251681e-09    3.4519573754251681e-09


Number of objective function evaluations             = 12
Number of objective gradient evaluations             = 12
Number of equality constraint evaluations            = 12
Number of inequality constraint evaluations          = 0
Number of equality constraint Jacobian evaluations   = 12
Number of inequality constraint Jacobian evaluations = 0
Number of Lagrangian Hessian evaluations             = 11
Total CPU secs in IPOPT (w/o function evaluations)   =      0.179
Total CPU secs in NLP function evaluations           =      0.046

EXIT: Optimal Solution Found.

************************ CUTEst statistics ************************


 Package used            :  IPOPT
 Problem                 :  HAGER4    
 # variables             =            5001
 # constraints           =            2500
 # objective functions   =        0.2500000E+02
 # objective gradients   =        0.1300000E+02
 # objective Hessians    =        0.1200000E+02
 # Hessian-vector prdct  =        0.0000000E+00
 # constraints functions =        0.2600000E+02
 # constraints gradients =        0.1400000E+02
 # constraints Hessians  =        0.1200000E+02
 Exit code               =               0
 Final f                 =        2.7940851989871529D+00
 Bounds feasibility      =        0.0000000000000000D+00
 Set up time             =            0.40 seconds
 Solve time              =            0.56 seconds


******************************************************************

